25414,157,25342,9766,14962,11694,11278,8870,21286,5037,1624,8377,2905,724,867,7746,6517,12528,2384,542,12310,1580,5033,20907,21866,21784,24150,5478,25175,22516,13829,16648,8878,16696,19225,19106,21186,15749,24762,20015,19972,100,25826,676,17137,2842,12372,3425,7667,4969,16575,10462,2718,1394,1829,22906,15210,24937,4430,1312,344,15506,24789,13950,16752,15974,3599,6043,22050,19564,25393,21731,4272,2883,24066,6309,23606,15405,16157,15968,11695,18847,22519,20978,5933,5934,9400,25414